NAME = SAfile180,
TOURSIZE = 180,
LENGTH = 2070,
44,24,124,55,169,177,104,145,163,74,78,159,153,123,160,165,115,120,39,3,34,10,97,156,2,18,136,90,167,75,76,131,67,69,105,110,111,114,27,141,31,53,149,150,132,6,101,26,15,61,162,79,93,8,21,42,113,57,142,98,91,1,11,63,38,50,4,32,161,59,33,73,28,54,164,170,96,103,176,180,58,125,151,117,49,99,119,71,140,5,9,148,157,56,86,87,154,129,102,88,25,133,144,108,172,116,158,135,52,43,139,152,22,175,7,178,47,51,30,109,95,92,29,16,12,45,155,41,83,171,64,66,36,37,23,70,77,128,62,137,94,48,107,35,138,46,40,147,81,112,65,100,143,146,127,126,84,130,174,173,19,106,166,179,121,80,13,134,122,20,68,17,72,82,85,60,14,168,89,118